(set-logic QF_BV)
(declare-fun _substvar_176_ () (_ BitVec 111))
(declare-fun _substvar_95_ () (_ BitVec 111))
(declare-fun _substvar_202_ () (_ BitVec 111))
(declare-fun _substvar_258_ () Bool)
(declare-fun _substvar_187_ () (_ BitVec 111))
(assert (and true true true true true true true true true true true true true true true true true true true true true true true true true true true true true true true true true true true true true true true true true true true true true true true true true true true true true true true true true true true true true true true true true true true true true true true true true true true true true true true true true true true true true true true true true true true true (= _substvar_176_ (_ bv0 111)) (ite _substvar_258_ (= _substvar_202_ (_ bv0 111)) (= _substvar_202_ (concat (_ bv0 110) (bvxor (_ bv0 1) ((_ extract 100 100) _substvar_176_))))) (= _substvar_187_ (concat ((_ extract 109 0) _substvar_202_) (bvxor ((_ extract 110 110) _substvar_202_) ((_ extract 100 100) _substvar_202_)))) (= _substvar_95_ (concat ((_ extract 109 0) _substvar_187_) (_ bv0 1))) true true true true true true true true true true true true true true true true true true true true true true true true true true true true true true true true true true true true true true true true true true true true true true true true true true true true true true true true true true true true true true true true true true true true true true true true true true true true true true true true true true true true true true true true true true true true true true true true true true true true true true true true true true true true true true true true true true true true true true true true true true true true true true true true true true true true true true true true true true true true true true true true true true true true true true true true true true true true true true true true true true true true true true true true true true true true true true true true true true true true true true true true true true true true true true true true true true true true true true true true true true true true true true true true true true true true true true true true true true true true true true true true true true true true true true true true true true true true true true true true true true true true true true true true true true true true true true true true true true true true true true true true true true true true true true true true true true true true true true true true true true true true true true true true true true true true true true true true true true (= (= _substvar_95_ (_ bv0 111)) false)))
(check-sat)
(exit)
